c CNF generator v0.9
p cnf 10 42
7 7 -9 0
5 6 2 0
-8 -8 -2 0
4 10 8 0
-8 3 5 0
7 -3 7 0
10 -1 -4 0
5 -9 3 0
-10 6 -5 0
1 -8 -9 0
7 -2 -9 0
-9 10 -4 0
-1 -3 1 0
4 2 3 0
3 -10 -8 0
-1 3 -6 0
9 3 -3 0
-5 5 6 0
-9 -6 -2 0
2 8 -6 0
6 -3 -4 0
-9 -4 -9 0
-5 -10 -2 0
-1 3 -10 0
10 8 10 0
10 10 -10 0
-3 -8 1 0
-9 7 -8 0
-3 -8 2 0
-3 5 5 0
2 -5 7 0
-5 -10 -7 0
-7 6 -8 0
5 6 2 0
7 6 -7 0
-2 -9 2 0
2 10 4 0
-1 -6 6 0
2 -10 8 0
-6 6 -6 0
-2 -7 7 0
-10 7 2 0
